748
7376
1487
4858
3690
3291
2066
6414
1223
6686
10006
4462
4244
5701
4470
7493
3507
4040
3754
940
3179
3480
1339
1446
2588
3919
9439
5977
2903
7351
6343
8347
2979
1561
640
6959
5480
7992
9594
6051
5597
1564
751
1203
6730
8399
8440
6538
730
4716
5087
